14
name="HCNOFClBr/C100005" config_type="wB97M-D3(BJ)/def2-TZVPP geometries" pbc="F F F" dipole_eAA="0.24161895 -0.56189924 0.14940595" polarizability_eAA2_per_V="1.12721438 -0.14697683 0.04996837 -0.14697683 1.38299085 -0.20603957 0.04996837 -0.20603957 0.64979294"
  C   6.35020733242641      1.82535938451006     -0.63878579742446
  C   6.87941826184893      0.59004255442547     -0.30936227019777
  C   4.97649568548247      1.96593788240747     -0.70078242241566
  C   6.02214378285294     -0.46917327997311     -0.05060004675367
  C   4.11398841352250      0.91605673850068     -0.44653725756484
  N   4.41034513222404      3.28292303046999     -1.05197609899468
  C   4.64488362501027     -0.31823813896573     -0.11651863685661
  Cl  6.68542321743012     -2.01397791149002      0.36509965787541
  O   5.18796063623648      4.19167225139529     -1.25702509034321
  O   3.20192251179046      3.37483425717772     -1.11415391900442
  H   6.98486378844235      2.67107053358380     -0.84583334880564
  H   7.94650111485872      0.44489333949694     -0.25231846245108
  H   3.04955145861235      1.07130347389003     -0.50761124942001
  H   4.00059503926192     -1.15830421542859      0.08880494235664
16
name="HCNOFClBr/C100016" config_type="wB97M-D3(BJ)/def2-TZVPP geometries" pbc="F F F" dipole_eAA="-0.83212813 -1.09434788 0.10695080" polarizability_eAA2_per_V="1.21017157 0.21183216 -0.05073817 0.21183216 1.28114636 -0.18226878 -0.05073817 -0.18226878 0.61739958"
  O   6.68529011191774      4.01720817830010     -1.22895985259309
  N   7.19361274722510      2.94825407807431     -0.94918311041832
  O   8.39260010534240      2.75146188343144     -0.89328813131222
  C   6.30319708664636      1.82274127784958     -0.66086852931989
  N   3.78175270585375     -1.35901322259105      0.18448815866902
  C   4.61973150326704     -0.30896797337119     -0.12551657102865
  C   6.84829868229788      0.59130048433275     -0.33794947219525
  C   4.93218559600844      2.00897882875586     -0.71911654587944
  C   6.00914862144856     -0.46907869426495     -0.07045022257020
  C   4.09495536605735      0.94678449543409     -0.45206334335715
  H   2.83226471102724     -1.29236157419646     -0.13367148534427
  H   4.16931213739561     -2.28278458990406      0.12321888624433
  H   7.91948257524544      0.47846597843092     -0.30054359245504
  H   4.53872191626379      2.97957909832002     -0.97339534386073
  H   6.42512615037195     -1.43284920598236      0.18711568144095
  H   3.02341988363134      1.08288105738099     -0.49181662602005
15
name="HCNOFClBr/C100027" config_type="wB97M-D3(BJ)/def2-TZVPP geometries" pbc="F F F" dipole_eAA="0.96752654 -0.39001893 0.10406463" polarizability_eAA2_per_V="1.30791909 -0.05335865 0.01531565 -0.05335865 0.99193528 -0.12229610 0.01531565 -0.12229610 0.56780079"
  C   6.36183054628694      1.84001066055673     -0.66465725064090
  C   6.88176352470519      0.59205710686945     -0.33134674332450
  C   4.99508840889050      2.02003842276625     -0.71575022945200
  C   4.16160337732752      0.95011749642038     -0.43258174152015
  C   4.66246145680310     -0.29496109775425     -0.10101643471455
  N   2.70642273087380      1.14284383496564     -0.48441433849926
  C   6.03214369131442     -0.47441451713928     -0.05096356388497
  O   8.23173753080024      0.47229388872224     -0.29578598705074
  O   2.29319371336959      2.24454735154883     -0.78698381951655
  O   2.00098638441393      0.18887636181355     -0.22119053622794
  H   7.04102032559277      2.65051250395297     -0.87893591599756
  H   4.56531567175385      2.97484369287424     -0.97042443080936
  H   3.98257220193724     -1.10326141542924      0.11260417041407
  H   6.44258570841697     -1.44162112843077      0.20577919954800
  H   8.47207462751395     -0.42568306173673     -0.05743247832358
21
name="HCNOFClBr/C100061" config_type="wB97M-D3(BJ)/def2-TZVPP geometries" pbc="F F F" dipole_eAA="-0.28530183 -0.57264740 -0.09082188" polarizability_eAA2_per_V="1.19650638 0.27394644 0.37617421 0.27394644 1.33061462 0.07504388 0.37617421 0.07504388 1.09791881"
  C   6.02126964418151      4.24063724008238      5.19281600360948
  C   5.07001534812996      4.62242737375709      4.08220760151376
  O   5.04022718608504      5.75593287790929      3.65567019411446
  C   4.17165307380737      3.56893258316519      3.52542548798304
  C   3.29392612881150      3.90890785911424      2.50356232083454
  C   4.17648903573224      2.25251657806696      3.98958744574738
  C   2.43759111829492      2.97338150595755      1.94788492402099
  C   3.33136972644957      1.30794863883040      3.44778006582044
  C   2.45554375000103      1.66387504517440      2.42233218813400
  O   1.66320882412121      0.67202403832595      1.95070008187099
  C   0.75138902132568      0.99170567701852      0.91484423138921
  H   5.47271847426157      3.86252013715519      6.05456434345964
  H   6.59274867450614      5.11663633293630      5.47917488264177
  H   6.69808453685735      3.45300550735162      4.86395288129431
  H   3.29314502582636      4.92816982045055      2.14710743693271
  H   4.84667870151552      1.95685499903484      4.78288940594385
  H   1.76873819832855      3.26893781309416      1.15619494488437
  H   3.32807267173773      0.28761045274537      3.80048948530020
  H   1.27295192189476      1.33701786254555      0.02149534980500
  H   0.04026754088798      1.75365362568294      1.23603622448087
  H   0.21931119724399      0.07400403160150      0.68978450021900
19
name="HCNOFClBr/C1000868" config_type="wB97M-D3(BJ)/def2-TZVPP geometries" pbc="F F F" dipole_eAA="-0.09419168 -0.02936275 0.04836863" polarizability_eAA2_per_V="1.14240747 0.00950028 -0.01740957 0.00950028 0.93022918 -0.02633161 -0.01740957 -0.02633161 0.70551220"
  C   3.08508497704307      1.30341412793267      0.67858715229382
  C   4.41657640244764      1.91715946142195      0.84202698127690
  C   1.89216520647497      1.85300656644044      0.91095330624443
  C   5.45018900729836      1.03501398687619      1.48836588483501
  C   4.71207929306750      3.14243807726001      0.41637738008058
  C   0.62986145749609      1.07294123881693      0.67506833091823
  C   1.67867889727026      3.24600937658384      1.42784624248338
  H   3.10059321024868      0.26397761902497      0.36449171292741
  H   5.14319486981160      0.75726384708811      2.49698621705729
  H   5.56407428604093      0.10785833038174      0.92461168849576
  H   6.41801192283185      1.52752709958640      1.54030327666094
  H   5.70307352826347      3.55409445808165      0.54935146906340
  H   3.98303447291267      3.75533812827869     -0.09225984408304
  H   -0.00866831076076      1.58994987173692     -0.04366776820142
  H   0.83518209946507      0.07483585050127      0.29572321747138
  H   0.05479344869877      0.98372906635713      1.59828364112966
  H   2.58483734781994      3.67207051877461      1.84667258907641
  H   1.33344210855335      3.90554285819131      0.62941514439156
  H   0.89949567501653      3.24212961666515      2.19086337787830
19
name="HCNOFClBr/C1000879" config_type="wB97M-D3(BJ)/def2-TZVPP geometries" pbc="F F F" dipole_eAA="0.00099895 0.00212987 0.00021797" polarizability_eAA2_per_V="1.25343043 -0.21222248 -0.00055062 -0.21222248 0.87002092 0.00114882 -0.00055062 0.00114882 0.77651144"
  C   1.68175169949465      4.14826502031952      2.38376820401383
  C   1.89314816441081      2.67923186343630      2.12042861810616
  C   0.65064397215344      1.86660570252212      1.86051745219706
  C   3.08357063465567      2.14508324384641      2.11636967546621
  C   4.27621252541025      1.61597982137280      2.11350031586373
  C   4.90877604813570      1.06474051059425      3.36537976257219
  C   5.10642125759012      1.52824914485446      0.85851117424110
  H   2.62233963497017      4.66095005125807      2.56306068486836
  H   1.18422713662095      4.61949419507425      1.53452387386766
  H   1.03689295214391      4.29004048391263      3.25245631625323
  H   0.11761720107610      2.25515053527311      0.99123368287111
  H   0.88710826119785      0.82136873028448      1.68359815534713
  H   -0.03134653824374      1.93111945607095      2.70995250549856
  H   5.17434444031517      0.01520413235797      3.22855798570759
  H   5.83139356570877      1.60197646953027      3.59169360561608
  H   4.24193836160095      1.14631413302082      4.21889550939144
  H   6.05240107411209      2.05570271679083      0.99151309066197
  H   5.34857056140510      0.48819602243088      0.63389677466539
  H   4.58728884724206      1.95612756704987      0.00574241279118
22
name="HCNOFClBr/C100107" config_type="wB97M-D3(BJ)/def2-TZVPP geometries" pbc="F F F" dipole_eAA="1.03998609 0.71690142 -0.22055918" polarizability_eAA2_per_V="1.55464521 0.33254618 -0.11770539 0.33254618 1.59581990 -0.20657490 -0.11770539 -0.20657490 0.82338189"
  C   6.60498483243036      4.20597837112449     -1.22893953620090
  N   7.15413995655738      2.89620665447514     -0.95435476465922
  C   8.58618718795358      2.69727173298399     -0.97690356512054
  C   6.32268938916925      1.84937944707564     -0.66468418519351
  C   6.83597526352661      0.56675073280997     -0.39566273501291
  C   4.92197199251624      2.02306237012116     -0.62845166058135
  C   5.98293394582152     -0.47970181746724     -0.11082472040008
  C   4.60421782866862     -0.30340773837111     -0.07861289624889
  C   3.72167760435895     -1.43718293458703      0.22327994068039
  C   4.08990618730013      0.96609624447211     -0.34155870610311
  O   2.51586999807829     -1.38808436387627      0.27696018730650
  H   7.41619939927303      4.89175712694162     -1.44795526862023
  H   5.93531646918684      4.18939768372738     -2.09099239726710
  H   6.04947147963461      4.60006580697706     -0.37521929532130
  H   9.07105167704487      3.63574174650411     -1.22288619674951
  H   8.96404791578879      2.36427204293214     -0.00768776480478
  H   8.87909867876971      1.95900494191410     -1.72640885924614
  H   7.89845283670691      0.38955753873784     -0.41097296594563
  H   4.49056210457025      2.99052086586914     -0.82565211595798
  H   6.39688111406758     -1.45955408809291      0.09126051379047
  H   4.25122521026374     -2.39261859111882      0.40820324339287
  H   3.01863882831269      1.10538642684750     -0.31613625173706